31643.0
0 0 0 0 1 1 0 1 1 0 0 0 1 1 0 0 0 0 0 0 0 1 0 0 0 0 0 1 1 0 




10 28 30 31 32 43 45 60 72 84 86 91 104 106 110 111 123 124 128 167 174 178 193 
22 61 66 74 77 81 87 94 98 134 145 152 156 164 166 170 180 

0 15 40 56 59 62 70 83 89 92 93 103 117 144 149 194 196 
36 37 41 44 49 54 57 63 73 76 78 82 115 119 120 133 135 154 171 173 185 



5 35 42 55 65 69 71 97 102 113 114 121 127 132 140 142 143 184 192 195 
12 13 16 17 24 46 64 75 80 85 95 109 136 137 139 158 159 160 162 168 177 179 187 198 







2 4 6 21 29 33 39 47 51 52 53 79 101 125 126 131 147 157 163 169 175 181 182 189 190 191 197 





3 7 8 18 19 20 23 25 26 34 38 50 58 88 105 107 108 112 141 146 148 150 161 165 188 
1 9 11 14 27 48 67 68 90 96 99 100 116 118 122 129 130 138 151 153 155 172 176 183 186 199 

